Version identifier: 22.1.0.0 | 2022-03-09 | 1a383f8ce
CPXPARAM_Read_DataCheck                          1
CPXPARAM_Threads                                 1
CPXPARAM_TimeLimit                               3600
Tried aggregator 2 times.
MIP Presolve eliminated 365 rows and 79 columns.
MIP Presolve modified 4212 coefficients.
Aggregator did 68 substitutions.
Reduced MIP has 1178 rows, 213 columns, and 7340 nonzeros.
Reduced MIP has 158 binaries, 0 generals, 0 SOSs, and 0 indicators.
Presolve time = 0.01 sec. (11.67 ticks)
Probing time = 0.00 sec. (2.33 ticks)
Tried aggregator 1 time.
Detecting symmetries...
Reduced MIP has 1178 rows, 213 columns, and 7340 nonzeros.
Reduced MIP has 158 binaries, 0 generals, 0 SOSs, and 0 indicators.
Presolve time = 0.01 sec. (3.53 ticks)
Probing time = 0.00 sec. (2.45 ticks)
Clique table members: 466.
MIP emphasis: balance optimality and feasibility.
MIP search method: dynamic search.
Parallel mode: none, using 1 thread.
Root relaxation solution time = 0.00 sec. (3.05 ticks)

        Nodes                                         Cuts/
   Node  Left     Objective  IInf  Best Integer    Best Bound    ItCnt     Gap

      0     0       13.0800    37                     13.0800       70         
      0     0       13.0800    21                     Cuts: 5      109         
      0     0       13.0800    33                   Cuts: 111      190         
      0     0       13.0800    26                    Cuts: 20      259         
      0     0       13.0800    23                   Cuts: 124      320         
Detecting symmetries...
      0     2       13.0800    15                     13.0800      320         
Elapsed time = 0.29 sec. (314.84 ticks, tree = 0.01 MB, solutions = 0)
    128    58       14.3986    18                     13.0800     5239         
*   150    56      integral     0       16.4900       13.0800     7078   20.68%
*   181    36      integral     0       13.4100       13.0800     9577    2.46%
    183    36       13.0800    10       13.4100       13.0800     9871    2.46%
*   240+    1                           13.0800       13.0800             0.00%

GUB cover cuts applied:  5
Cover cuts applied:  39
Implied bound cuts applied:  18
Flow cuts applied:  3
Mixed integer rounding cuts applied:  7

Root node processing (before b&c):
  Real time             =    0.29 sec. (314.85 ticks)
Sequential b&c:
  Real time             =    0.49 sec. (651.48 ticks)
                          ------------
Total (root+branch&cut) =    0.78 sec. (966.33 ticks)
